# ========================
# TONTO generated CIF file
# ========================

data_so2

_audit_creation_date               2016-2-17
_audit_creation_method             'Tonto 3.6.0 github v. 3320ef5'

# This is an incomplete CIF file, you must edit it
# in order for it to be acceptable

# ================
# Publication info
# ================

_publ_contact_author
;
    Dr. Tonto Magnifico
;
_publ_contact_author_email         'tonto.magnifico@gmail.com'
_publ_contact_author_fax           'use e-mail in century 21'
_publ_contact_author_phone         '+61 8 6488 3138'
_publ_requested_journal            'IUCrJ'
_publ_section_title
;
   Hirshfeld-atom-refinement (HAR) for so2
   See: SC. Capelli, H.-B. Burgi, B. Dittrich, S.Grabowsky
        and Dylan Jayatilaka, IUCrJ (2014). 1, 361â€“379
;

loop_
    _publ_author_name
    'Tonto Magnifico'

_publ_author_address
;
    Dr. Tonto Magnifico
    1 El Camino Ciberespacio
    Tierra Austral del Espiritu Santo
;

# ====================
# Chemical information
# ====================

_chemical_name_common              so2
_chemical_formula_sum              'O2 S'
_chemical_formula_moiety           'O2 S'
_chemical_formula_weight           64.0628
_chemical_compound_source          'see text'
_chemical_absolute_configuration   unk

# Tonto specific keys

_chemical_formula_spin_mult         1
_chemical_formula_n_electrons       32
_chemical_formula_n_alpha_electrons 16
_chemical_formula_n_beta_electrons  16

# ====================
# Symmetry information
# ====================

_symmetry_cell_setting             Orthorhombic
_symmetry_space_group_name_H-M     'a b a 2'
_symmetry_space_group_name_Hall    'a 2 -2ab'
_symmetry_Int_Tables_number        '41'

loop_
    _symmetry_equiv_pos_as_xyz
'+x, +y, +z'
'+x, +y+1/2, +z+1/2'
'-x, -y, +z'
'-x+1/2, +y+1/2, +z'
'-x, -y+1/2, +z+1/2'
'-x+1/2, +y, +z+1/2'
'+x+1/2, -y+1/2, +z'
'+x+1/2, -y, +z+1/2'

# =====================
# Unit cell information
# =====================

_cell_length_a                      6.078500(0)
_cell_length_b                      5.953300(0)
_cell_length_c                      6.171000(0)
_cell_angle_alpha                   90.000000(0)
_cell_angle_beta                    90.000000(0)
_cell_angle_gamma                   90.000000(0)
_cell_volume                        223.310804(0)

_cell_formula_units_Z               4.00000

_atom_sites_Cartn_tran_matrix_11    6.078500
_atom_sites_Cartn_tran_matrix_21    0.000000
_atom_sites_Cartn_tran_matrix_31    0.000000
_atom_sites_Cartn_tran_matrix_12    0.000000
_atom_sites_Cartn_tran_matrix_22    5.953300
_atom_sites_Cartn_tran_matrix_32    0.000000
_atom_sites_Cartn_tran_matrix_13    0.000000
_atom_sites_Cartn_tran_matrix_23    0.000000
_atom_sites_Cartn_tran_matrix_33    6.171000
_atom_sites_Cartn_tran_vector_1     0.000000
_atom_sites_Cartn_tran_vector_2     0.000000
_atom_sites_Cartn_tran_vector_3     0.000000

# ==================
# Refinement details
# ==================

# Tonto-specific keys and data

_refine_ls_software                'Tonto'
_refine_ls_software_version        '3.6.0 v. 3320ef5'
_refine_ls_software_platform       'GNU-gfortran-on-LINUX'
_refine_ls_software_build_date     'Wed Feb 17 20:07:18 AWST 2016'
_refine_ls_kind                    'Hirshfeld atom refinement (HAR)'

_refine_ls_QM_calc_method          'Hartree-Fock/SCCF L=1 R=8.0 A'
_refine_ls_QM_calc_ao_kind         'restricted'
_refine_ls_QM_calc_basis           'DZP'
_refine_ls_QM_calc_basis_kind      'cartesian'
_refine_ls_QM_calc_basis_max_l     '2'
_refine_ls_QM_calc_unit            'As listed in _atom_site_* block'

_refine_ls_SVD_threshold           0.1E-04
_refine_ls_coordinate_system       cartesian

# Standard CIF keys and data

_refine_ls_structure_factor_coeff  F
_refine_ls_matrix_type             full
_refine_ls_R_factor_gt             0.0287
_refine_ls_R_factor_all            0.0287
_refine_ls_wR_factor_gt            0.0122
_refine_ls_wR_factor_all           0.0122
_refine_ls_R_Fsqd_factor           0.0485
_refine_ls_goodness_of_fit_gt      1.9231
_refine_ls_goodness_of_fit_all     1.9231
_refine_ls_number_reflns           1080
_refine_ls_number_parameters       27
_refine_ls_number_restraints       0
_refine_ls_number_constraints      17
_refine_ls_hydrogen_treatment      refall
_refine_ls_weighting_scheme        sigma
_refine_ls_weighting_details       'w=1/\s(F)'
_refine_ls_shift/su_conv_tol       0.0100
_refine_ls_shift/su_max            0.0009
_refine_ls_shift/su_max_mean       0.0002
_refine_ls_shift/su_max_par        'O1 py'
_refine_ls_extinction_method       none

_refine_diff_density_max           0.0440
_refine_diff_density_min           -0.0630
_refine_diff_density_rms           0.0098
_refine_diff_density_max_atom      0.0145
_refine_diff_density_max_atom_tag  S
_refine_diff_density_min_atom      0.0027
_refine_diff_density_min_atom_tag  O1
_refine_diff_density_rms_atom      0.0050

_refine_special_details
;
. If constraints were applied they are defined by zero
  eigenvalues of the least-squares hessian, see the
  value of _refine_ls_SVD_threshold
;

# =================================
# Cartesian axis system coordinates
# =================================

# . Units are in Angstrom
# . Please keep these precise parameters and ESDs

loop_
_atom_site_Cartn_label
_atom_site_Cartn_x
_atom_site_Cartn_x_esd
_atom_site_Cartn_y
_atom_site_Cartn_y_esd
_atom_site_Cartn_z
_atom_site_Cartn_z_esd
_atom_site_Cartn_adp_type
_atom_site_Cartn_occupancy
_atom_site_Cartn_disorder_group
S
        0.000000
        0.000000
        5.953300
        0.000000
        5.253710
        0.000486
Uani
1.000000
0
O1
       -0.830533
        0.000253
        6.846565
        0.000242
        5.995751
        0.000486
Uani
1.000000
0
O2
        0.830533
        0.000253
        5.060035
        0.000242
        5.995751
        0.000486
Uani
1.000000
0

# ==========================
# Cartesian axis system ADPs
# ==========================

# . Units are in Angstrom^2
# . Please keep these precise parameters

loop_
_atom_site_Cartn_ADP2_U_label
_atom_site_Cartn_ADP2_U_11
_atom_site_Cartn_ADP2_U_11_esd
_atom_site_Cartn_ADP2_U_22
_atom_site_Cartn_ADP2_U_22_esd
_atom_site_Cartn_ADP2_U_33
_atom_site_Cartn_ADP2_U_33_esd
_atom_site_Cartn_ADP2_U_12
_atom_site_Cartn_ADP2_U_12_esd
_atom_site_Cartn_ADP2_U_13
_atom_site_Cartn_ADP2_U_13_esd
_atom_site_Cartn_ADP2_U_23
_atom_site_Cartn_ADP2_U_23_esd
S
        0.019508
        0.000090
        0.016391
        0.000077
        0.017470
        0.000082
        0.001750
        0.000084
        0.000000
        0.000000
        0.000000
        0.000000
O1
        0.023734
        0.000099
        0.026086
        0.000100
        0.032317
        0.000120
        0.004499
        0.000086
        0.003196
        0.000131
       -0.006290
        0.000124
O2
        0.023734
        0.000099
        0.026086
        0.000100
        0.032317
        0.000120
        0.004499
        0.000086
       -0.003196
        0.000131
        0.006290
        0.000124

# ===========================
# Third order cartesian ADP3s
# ===========================

# . Units are in Angstrom^3
# . Please keep these precise parameters

_atom_site_Cartn_ADP3_U_scale_factor 1000.0000000000000

loop_
_atom_site_Cartn_ADP3_U_label
_atom_site_Cartn_ADP3_U_111
_atom_site_Cartn_ADP3_U_111_esd
_atom_site_Cartn_ADP3_U_222
_atom_site_Cartn_ADP3_U_222_esd
_atom_site_Cartn_ADP3_U_333
_atom_site_Cartn_ADP3_U_333_esd
_atom_site_Cartn_ADP3_U_112
_atom_site_Cartn_ADP3_U_112_esd
_atom_site_Cartn_ADP3_U_113
_atom_site_Cartn_ADP3_U_113_esd
_atom_site_Cartn_ADP3_U_122
_atom_site_Cartn_ADP3_U_122_esd
_atom_site_Cartn_ADP3_U_223
_atom_site_Cartn_ADP3_U_223_esd
_atom_site_Cartn_ADP3_U_133
_atom_site_Cartn_ADP3_U_133_esd
_atom_site_Cartn_ADP3_U_233
_atom_site_Cartn_ADP3_U_233_esd
_atom_site_Cartn_ADP3_U_123
_atom_site_Cartn_ADP3_U_123_esd
S
        0.000000
        0.000000
        0.000000
        0.000000
       -0.016523
        0.096488
        0.000000
        0.000000
        0.053164
        0.044815
        0.000000
        0.000000
        0.249598
        0.040863
        0.000000
        0.000000
        0.000000
        0.000000
       -0.001342
        0.011563

# ============================
# Fourth order cartesian ADP4s
# ============================

# . Units are in Angstrom^4
# . Please keep these precise parameters

_atom_site_Cartn_ADP4_U_scale_factor 10000.000000000000

loop_
_atom_site_Cartn_ADP4_U_label
_atom_site_Cartn_ADP4_U_1111
_atom_site_Cartn_ADP4_U_1111_esd
_atom_site_Cartn_ADP4_U_2222
_atom_site_Cartn_ADP4_U_2222_esd
_atom_site_Cartn_ADP4_U_3333
_atom_site_Cartn_ADP4_U_3333_esd
_atom_site_Cartn_ADP4_U_1112
_atom_site_Cartn_ADP4_U_1112_esd
_atom_site_Cartn_ADP4_U_1113
_atom_site_Cartn_ADP4_U_1113_esd
_atom_site_Cartn_ADP4_U_1222
_atom_site_Cartn_ADP4_U_1222_esd
_atom_site_Cartn_ADP4_U_2223
_atom_site_Cartn_ADP4_U_2223_esd
_atom_site_Cartn_ADP4_U_1333
_atom_site_Cartn_ADP4_U_1333_esd
_atom_site_Cartn_ADP4_U_2333
_atom_site_Cartn_ADP4_U_2333_esd
_atom_site_Cartn_ADP4_U_1122
_atom_site_Cartn_ADP4_U_1122_esd
_atom_site_Cartn_ADP4_U_1133
_atom_site_Cartn_ADP4_U_1133_esd
_atom_site_Cartn_ADP4_U_2233
_atom_site_Cartn_ADP4_U_2233_esd
_atom_site_Cartn_ADP4_U_1123
_atom_site_Cartn_ADP4_U_1123_esd
_atom_site_Cartn_ADP4_U_1223
_atom_site_Cartn_ADP4_U_1223_esd
_atom_site_Cartn_ADP4_U_1233
_atom_site_Cartn_ADP4_U_1233_esd
S
        0.028429
        0.086728
       -0.270975
        0.062633
        0.040036
        0.072719
       -0.008655
        0.092201
        0.000000
        0.000000
       -0.069466
        0.083946
        0.000000
        0.000000
        0.000000
        0.000000
        0.000000
        0.000000
        0.014350
        0.027413
       -0.028652
        0.028241
        0.026229
        0.026886
        0.000000
        0.000000
        0.000000
        0.000000
       -0.114854
        0.053874


# Standard CIF keys and data

# ===============
# Reflection data
# ===============

_diffrn_radiation_wavelength        0.317295

_reflns_d_resolution_high           3.501991
_reflns_d_resolution_low            0.384580
_reflns_limit_h_max                 15
_reflns_limit_h_min                 0
_reflns_limit_k_max                 15
_reflns_limit_k_min                 0
_reflns_limit_l_max                 16
_reflns_limit_l_min                 0
_reflns_number_gt                   1080
_reflns_number_total                1080
_reflns_threshold_expression        'F>0'

_reflns_special_details
;
* Specify symmetry and Friedel pair averaging *

. Only reflections which satisfy the threshold expression
  are listed below, and only they are considered observed,
  thus the *_gt, *_all, & *_total data are always the same
;

loop_
    _refln_index_h
    _refln_index_k
    _refln_index_l
    _refln_F_calc
    _refln_F_meas
    _refln_F_sigma
       2       0       0       38.867956       43.773800        0.855400
       4       0       0        5.761775        5.830300        0.051600
       6       0       0       24.878942       24.568100        0.079000
       8       0       0       17.337539       17.255500        0.076500
      10       0       0        4.169179        4.085900        0.078300
      12       0       0        2.095021        2.410500        0.104200
      14       0       0        2.221724        2.374200        0.072100
       0       2       0       30.791416       33.908600        0.380300
       1       2       0       33.199540       34.814500        0.282700
       2       2       0       39.374360       39.992500        0.332400
       3       2       0       14.502790       14.708400        0.070600
       4       2       0       33.202184       32.662000        0.112000
       5       2       0       13.289657       13.162000        0.035300
       6       2       0       17.183510       17.192700        0.043000
       7       2       0        2.147774        2.220500        0.048000
       8       2       0        9.472206        9.375400        0.041800
       9       2       0        3.937116        3.847500        0.033600
      10       2       0        6.641862        6.616200        0.049500
      11       2       0        0.320655        0.434000        0.401900
      12       2       0        3.553462        3.531600        0.038800
      13       2       0        1.209205        1.212200        0.094200
      14       2       0        1.267239        1.254500        0.081900
      15       2       0        0.119139        0.492100        0.381200
       0       4       0       10.766789       11.105900        0.048300
       1       4       0        9.920557       10.008000        0.022400
       2       4       0       29.782274       29.335500        0.097300
       3       4       0        5.962988        6.277600        0.065500
       4       4       0       31.243617       30.779500        0.080100
       5       4       0        4.749865        4.712200        0.030700
       6       4       0       11.740310       11.702600        0.057600
       7       4       0        0.868873        1.110200        0.113100
       8       4       0        6.375925        6.273900        0.036400
       9       4       0        2.577884        2.635100        0.046200
      10       4       0        6.851831        6.799100        0.044800
      11       4       0        0.626703        0.639500        0.232100
      12       4       0        3.189890        3.149200        0.042300
      13       4       0        0.428465        0.582300        0.434100
      14       4       0        0.702894        0.801500        0.156700
      15       4       0        0.077353        0.253900        0.302500
       0       6       0       29.286232       28.914000        0.085300
       1       6       0        5.014889        5.166600        0.058900
       2       6       0       17.820508       17.922600        0.041000
       3       6       0        2.812015        2.903300        0.118000
       4       6       0        9.153078        9.287000        0.038500
       5       6       0        2.849305        2.909000        0.040600
       6       6       0       12.311372       12.033700        0.049000
       7       6       0        0.749434        0.613600        0.217100
       8       6       0        9.341043        9.351400        0.046400
       9       6       0        2.130838        2.333900        0.062000
      10       6       0        3.009849        2.966100        0.044900
      11       6       0        0.023329        0.477000        0.398500
      12       6       0        1.275944        1.240900        0.092000
      13       6       0        0.183742        0.609000        0.393800
      14       6       0        1.246097        1.036900        0.110100
       0       8       0       14.339851       14.342200        0.078000
       1       8       0        3.807920        3.796800        0.037100
       2       8       0       11.296459       11.285900        0.035800
       3       8       0        2.067731        1.952200        0.054600
       4       8       0        8.693768        8.520600        0.043300
       5       8       0        3.891769        3.876000        0.033400
       6       8       0        8.019342        8.027200        0.046900
       7       8       0        1.506518        1.526500        0.069800
       8       8       0        4.678455        4.648700        0.040100
       9       8       0        1.065191        1.075800        0.138000
      10       8       0        1.988698        2.052300        0.059400
      11       8       0        0.230609        0.581700        0.437100
      12       8       0        1.461213        1.419600        0.072400
      13       8       0        0.679503        0.758800        0.145500
       0      10       0        4.265738        4.155800        0.060500
       1      10       0        0.084330        0.274400        0.315600
       2      10       0        7.117490        7.142300        0.041600
       3      10       0        0.702824        0.553800        0.405200
       4      10       0        7.751881        7.700100        0.047500
       5      10       0        0.674671        0.366700        0.434100
       6      10       0        3.317182        3.303200        0.040300
       7      10       0        0.014332        0.446300        0.401900
       8      10       0        1.671967        1.578000        0.074800
       9      10       0        0.333315        0.725700        0.199300
      10      10       0        2.096594        2.089500        0.054600
      11      10       0        0.540199        0.558600        0.204400
      12      10       0        1.138714        1.097200        0.059000
       0      12       0        4.106399        4.049400        0.061100
       1      12       0        1.079483        1.139000        0.103600
       2      12       0        3.544892        3.549300        0.032200
       3      12       0        0.809018        1.037500        0.139400
       4      12       0        2.498877        2.509600        0.050100
       5      12       0        0.574126        0.529000        0.443300
       6      12       0        2.039940        2.125900        0.059100
       7      12       0        0.215633        0.343500        0.418300
       8      12       0        1.763940        1.776300        0.055700
       9      12       0        0.726151        0.779800        0.146400
       0      14       0        2.229116        2.391800        0.070000
       1      14       0        0.181703        0.336200        0.408500
       2      14       0        1.557968        1.547800        0.056600
       3      14       0        0.093024        0.475000        0.248400
       4      14       0        1.069114        1.033300        0.084700
       5      14       0        0.374736        0.523800        0.377700
       6      14       0        1.292844        1.315400        0.060800
       1       1       1       64.618593       69.564700        2.245800
       2       1       1       34.845703       36.945400        0.263600
       3       1       1       25.452634       25.709900        0.110400
       4       1       1        5.034779        5.034100        0.021200
       5       1       1       20.943049       20.742500        0.039100
       6       1       1        8.511685        8.571100        0.029800
       7       1       1       18.797270       18.629300        0.033700
       8       1       1        2.630720        2.592100        0.076400
       9       1       1        8.759928        8.760900        0.033000
      10       1       1        2.012145        1.980300        0.044200
      11       1       1        3.636614        3.632200        0.026200
      12       1       1        1.112105        1.106500        0.086000
      13       1       1        2.317557        2.317900        0.036100
      14       1       1        0.403597        0.507000        0.352900
      15       1       1        1.195783        1.172900        0.055200
       1       3       1       24.482703       24.740600        0.079500
       2       3       1        8.355496        8.393400        0.028600
       3       3       1       41.598616       40.557900        0.147200
       4       3       1        2.154716        2.193500        0.026000
       5       3       1       23.677142       23.821200        0.038300
       6       3       1        2.561397        2.588200        0.036800
       7       3       1        9.562981        9.683800        0.032200
       8       3       1        1.085956        1.148200        0.072900
       9       3       1        7.375892        7.363800        0.033100
      10       3       1        0.345989        0.389300        0.234600
      11       3       1        5.725099        5.731600        0.027900
      12       3       1        0.686036        0.570100        0.293700
      13       3       1        1.834128        1.879600        0.044600
      14       3       1        0.092666        0.528600        0.316800
      15       3       1        0.642092        0.720600        0.195400
       1       5       1       24.117031       23.934100        0.035500
       2       5       1       13.522651       13.619700        0.027100
       3       5       1       20.273091       20.402000        0.036800
       4       5       1        2.540889        2.691500        0.026900
       5       5       1       14.751673       14.689800        0.030800
       6       5       1        5.253256        5.267200        0.023800
       7       5       1       10.274690       10.236700        0.030100
       8       5       1        2.763417        2.748000        0.030500
       9       5       1        6.520696        6.595900        0.030600
      10       5       1        2.043806        2.052500        0.042700
      11       5       1        3.147063        3.106400        0.030600
      12       5       1        0.764120        0.674500        0.174900
      13       5       1        1.406481        1.264700        0.060200
      14       5       1        0.238833        0.487500        0.210800
       1       7       1       19.213209       19.135300        0.032800
       2       7       1        2.103297        2.081200        0.031100
       3       7       1       10.621285       10.708700        0.035200
       4       7       1        0.734128        0.900900        0.084500
       5       7       1        9.494900        9.544600        0.035100
       6       7       1        2.154333        2.092100        0.036400
       7       7       1        9.507776        9.473200        0.032900
       8       7       1        0.618857        0.489900        0.334100
       9       7       1        4.192519        4.150400        0.024800
      10       7       1        0.460180        0.663300        0.252500
      11       7       1        1.707096        1.778200        0.045000
      12       7       1        0.311893        0.582400        0.300600
      13       7       1        1.314353        1.332400        0.048600
      14       7       1        0.350427        0.363800        0.240700
       1       9       1        8.168694        8.228600        0.031900
       2       9       1        2.730970        2.706900        0.030900
       3       9       1        9.516341        9.477700        0.033700
       4       9       1        1.482767        1.526000        0.052400
       5       9       1        7.168481        7.213300        0.032200
       6       9       1        2.000128        1.896600        0.044200
       7       9       1        3.593538        3.618300        0.026300
       8       9       1        0.698447        0.686500        0.183000
       9       9       1        2.379995        2.318300        0.039400
      10       9       1        0.360201        0.485900        0.366800
      11       9       1        1.868972        1.829400        0.039500
      12       9       1        0.625104        0.709700        0.134100
       1      11       1        4.634985        4.649500        0.022100
       2      11       1        1.702429        1.689000        0.049600
       3      11       1        5.146941        5.172300        0.023500
       4      11       1        0.210406        0.394500        0.340200
       5      11       1        3.487435        3.485700        0.027300
       6      11       1        0.747019        0.710100        0.171500
       7      11       1        2.079807        2.068700        0.040500
       8      11       1        0.559829        0.640600        0.190100
       9      11       1        1.722955        1.754600        0.041200
      10      11       1        0.644329        0.577800        0.138300
      11      11       1        1.067897        0.977200        0.046700
       1      13       1        2.925854        2.935900        0.027200
       2      13       1        0.338249        0.476700        0.344100
       3      13       1        1.815525        1.862400        0.038800
       4      13       1        0.182582        0.411700        0.332200
       5      13       1        1.589345        1.635000        0.046600
       6      13       1        0.253801        0.458400        0.182700
       7      13       1        1.627816        1.651500        0.036900
       8      13       1        0.411635        0.316600        0.254200
       1      15       1        1.131568        1.177000        0.048500
       2      15       1        0.287984        0.354700        0.225400
       3      15       1        1.042275        1.003700        0.041700
       0       0       2       68.742834       64.741700        4.256700
       2       0       2       37.564255       38.654700        0.265700
       4       0       2       32.762621       32.116100        0.239100
       6       0       2       19.527168       19.444000        0.072000
       8       0       2       12.330321       12.241700        0.044500
      10       0       2        6.279632        6.293100        0.052000
      12       0       2        3.306480        3.306200        0.041400
      14       0       2        1.638618        1.612900        0.066100
       0       2       2       38.159303       38.761700        0.417100
       1       2       2       25.524727       25.760100        0.165300
       2       2       2       33.675353       33.358200        0.149100
       3       2       2       12.201837       12.345600        0.026200
       4       2       2       25.997329       25.931800        0.053400
       5       2       2       11.114885       11.197800        0.044900
       6       2       2       16.850085       16.899200        0.038100
       7       2       2        1.579454        1.732800        0.063700
       8       2       2       10.545278       10.461700        0.036700
       9       2       2        3.903729        3.897800        0.026400
      10       2       2        5.969348        5.913600        0.036700
      11       2       2        0.372563        0.584700        0.214800
      12       2       2        2.965554        2.979200        0.031900
      13       2       2        1.036064        0.814400        0.140200
      14       2       2        1.317432        1.315600        0.055000
      15       2       2        0.160944        0.356400        0.319800
       0       4       2       31.534965       31.313500        0.115400
       1       4       2        8.062858        8.174500        0.027500
       2       4       2       25.362081       25.186800        0.047600
       3       4       2        4.607296        4.651800        0.021300
       4       4       2       21.640526       21.715000        0.047000
       5       4       2        4.920408        4.917900        0.025500
       6       4       2       14.132816       14.129400        0.036400
       7       4       2        1.610943        1.649700        0.041500
       8       4       2        9.309503        9.381200        0.040600
       9       4       2        2.062643        2.157600        0.038800
      10       4       2        5.234519        5.284000        0.027400
      11       4       2        0.372001        0.565700        0.222000
      12       4       2        2.436679        2.421300        0.036200
      13       4       2        0.576453        0.579000        0.216900
      14       4       2        1.238536        1.193200        0.057400
      15       4       2        0.129442        0.366600        0.238800
       0       6       2       21.293035       21.197800        0.048100
       1       6       2        4.244026        4.411500        0.023300
       2       6       2       17.425146       17.506000        0.039400
       3       6       2        1.932534        1.921400        0.033700
       4       6       2       14.943304       15.006100        0.038800
       5       6       2        3.519520        3.481900        0.025100
       6       6       2       10.684602       10.338800        0.050100
       7       6       2        0.928925        1.056500        0.086500
       8       6       2        6.974809        7.076400        0.032300
       9       6       2        1.537664        1.553500        0.051500
      10       6       2        3.506979        3.581200        0.027600
      11       6       2        0.441085        0.479900        0.340200
      12       6       2        1.997990        1.973600        0.042400
      13       6       2        0.455414        0.393600        0.232100
      14       6       2        1.009931        0.931500        0.069500
       0       8       2       11.546877       11.595000        0.034100
       1       8       2        3.682882        3.646100        0.026100
       2       8       2       11.225419       11.196400        0.037400
       3       8       2        2.457990        2.341900        0.027600
       4       8       2        9.612286        9.585400        0.029800
       5       8       2        3.120628        3.094000        0.028300
       6       8       2        6.608560        6.785100        0.033700
       7       8       2        0.957162        0.871300        0.118000
       8       8       2        4.012433        3.948300        0.026000
       9       8       2        1.493563        1.518900        0.057600
      10       8       2        2.574076        2.581600        0.033900
      11       8       2        0.432112        0.579900        0.321600
      12       8       2        1.392950        1.392400        0.049200
      13       8       2        0.499763        0.479800        0.142800
       0      10       2        7.200783        7.235900        0.050500
       1      10       2        0.422718        0.780400        0.161000
       2      10       2        6.424954        6.413800        0.032600
       3      10       2        0.629529        0.672300        0.243500
       4      10       2        5.653179        5.577700        0.026600
       5      10       2        0.289201        0.325000        0.336200
       6      10       2        3.772434        3.809500        0.026000
       7      10       2        0.586867        0.574000        0.278500
       8      10       2        2.742593        2.724700        0.032100
       9      10       2        0.511957        0.596500        0.312700
      10      10       2        1.660375        1.652400        0.043800
      11      10       2        0.372021        0.344800        0.319800
       0      12       2        3.712006        3.770900        0.034300
       1      12       2        0.932355        0.987200        0.073300
       2      12       2        3.244853        3.293700        0.028900
       3      12       2        0.558563        0.422800        0.336200
       4      12       2        2.619540        2.641700        0.028800
       5      12       2        0.898985        0.923100        0.078300
       6      12       2        2.149036        2.139200        0.037400
       7      12       2        0.396775        0.449300        0.348000
       8      12       2        1.502513        1.572200        0.043600
       9      12       2        0.502491        0.472700        0.289900
       0      14       2        1.675857        1.653600        0.050600
       1      14       2        0.221754        0.512100        0.200700
       2      14       2        1.583600        1.574200        0.043500
       3      14       2        0.249578        0.442700        0.332200
       4      14       2        1.447636        1.482500        0.038500
       5      14       2        0.307827        0.541700        0.168600
       6      14       2        1.067122        1.034000        0.044200
       1       1       3       27.615307       27.149300        0.120700
       2       1       3       21.256578       20.782100        0.061900
       3       1       3       35.364623       34.511000        0.128300
       4       1       3        3.416392        3.499500        0.022800
       5       1       3       22.278892       22.405000        0.044900
       6       1       3        6.468584        6.486500        0.028800
       7       1       3       11.065611       11.095400        0.029500
       8       1       3        2.418964        2.403600        0.036400
       9       1       3        7.457391        7.488700        0.035100
      10       1       3        1.890613        1.912200        0.045800
      11       1       3        4.969048        4.962700        0.033000
      12       1       3        0.883557        0.869500        0.122600
      13       1       3        1.908602        1.955200        0.046700
      14       1       3        0.305368        0.451000        0.344100
      15       1       3        0.716628        0.555100        0.253700
       1       3       3       37.284825       36.503200        0.160100
       2       3       3        5.988684        6.030300        0.023400
       3       3       3       18.658582       19.051000        0.056300
       4       3       3        1.054417        1.232800        0.040100
       5       3       3       15.079001       15.375300        0.032900
       6       3       3        1.347645        1.709200        0.055700
       7       3       3       15.565498       15.685800        0.038600
       8       3       3        1.530176        1.479300        0.051500
       9       3       3        7.419155        7.237000        0.051500
      10       3       3        0.684910        0.701100        0.222600
      11       3       3        2.821626        2.861500        0.031900
      12       3       3        0.361549        0.808500        0.164800
      13       3       3        1.716175        1.696200        0.049400
      14       3       3        0.074436        0.493300        0.331800
      15       3       3        1.103341        1.091700        0.045300
       1       5       3       21.048426       21.086200        0.036100
       2       5       3        9.902207        9.904100        0.022700
       3       5       3       17.177324       17.214800        0.030300
       4       5       3        2.908945        2.914200        0.022200
       5       5       3       13.916800       13.864900        0.037900
       6       5       3        5.371931        5.420100        0.027400
       7       5       3        9.536811        9.508400        0.039200
       8       5       3        1.716037        1.739700        0.045900
       9       5       3        5.025063        5.180900        0.030100
      10       5       3        1.237202        1.289000        0.065000
      11       5       3        2.735445        2.749700        0.034600
      12       5       3        0.988495        0.953600        0.111800
      13       5       3        1.602291        1.410700        0.054000
      14       5       3        0.402238        0.403700        0.319800
       1       7       3       11.480138       11.533600        0.028700
       2       7       3        2.327297        2.391400        0.028600
       3       7       3       15.483053       15.434000        0.033500
       4       7       3        0.949540        0.788400        0.135200
       5       7       3       10.474879       10.410300        0.035500
       6       7       3        1.277085        1.350300        0.056400
       7       7       3        4.835835        4.870700        0.023400
       8       7       3        0.307364        0.351100        0.336200
       9       7       3        3.558813        3.574900        0.030900
      10       7       3        0.907081        0.728800        0.146200
      11       7       3        2.861043        2.855800        0.032000
      12       7       3        0.365941        0.534200        0.320600
      13       7       3        1.036201        1.015800        0.067500
       1       9       3        9.120956        9.174500        0.031100
       2       9       3        2.808380        2.849900        0.032100
       3       9       3        6.843767        6.735800        0.042900
       4       9       3        0.729507        0.919800        0.091000
       5       9       3        5.070372        5.156200        0.021400
       6       9       3        1.010935        1.067300        0.192600
       7       9       3        4.316947        4.358400        0.026200
       8       9       3        1.212768        1.224500        0.074600
       9       9       3        2.768668        2.779600        0.034200
      10       9       3        0.733205        0.520500        0.351000
      11       9       3        1.246054        1.225400        0.055900
      12       9       3        0.287134        0.582900        0.163300
       1      11       3        5.072782        5.098000        0.026900
       2      11       3        1.257507        1.264000        0.063200
       3      11       3        3.270543        3.289800        0.028900
       4      11       3        0.396745        0.531400        0.229200
       5      11       3        2.976282        2.984200        0.026800
       6      11       3        1.152108        1.158200        0.065700
       7      11       3        2.746955        2.703000        0.032400
       8      11       3        0.394901        0.344900        0.351900
       9      11       3        1.360844        1.411900        0.048500
      10      11       3        0.279899        0.368300        0.248000
       1      13       3        1.959599        1.964700        0.036800
       2      13       3        0.163634        0.359000        0.363200
       3      13       3        2.380692        2.385100        0.033500
       4      13       3        0.397275        0.489700        0.233200
       5      13       3        1.850151        1.781900        0.036300
       6      13       3        0.381881        0.542100        0.182500
       7      13       3        0.996505        0.994000        0.057400
       8      13       3        0.129500        0.237500        0.243300
       1      15       3        1.032419        1.046900        0.040000
       2      15       3        0.355408        0.329700        0.243300
       0       0       4        7.592881        7.668400        0.041200
       2       0       4       29.731043       29.000900        0.159600
       4       0       4       33.479946       33.047200        0.074500
       6       0       4       11.847782       11.972800        0.056900
       8       0       4        5.578483        5.451900        0.099800
      10       0       4        6.892845        6.877800        0.046500
      12       0       4        3.482607        3.452000        0.040800
      14       0       4        0.691751        0.732100        0.171600
       0       2       4       32.859427       32.196400        0.164300
       1       2       4       13.292510       13.323100        0.026000
       2       2       4       24.550233       24.429700        0.051600
       3       2       4        7.156490        7.265700        0.024100
       4       2       4       16.696791       16.839100        0.033700
       5       2       4        7.431865        7.500900        0.029900
       6       2       4       14.776481       14.931100        0.043800
       7       2       4        1.040139        1.208300        0.059900
       8       2       4       10.071595       10.115200        0.037300
       9       2       4        3.328986        3.329600        0.029700
      10       2       4        4.567305        4.541800        0.024300
      11       2       4        0.290662        0.390200        0.344100
      12       2       4        2.095633        2.090200        0.041900
      13       2       4        0.744617        0.755300        0.131000
      14       2       4        1.272072        1.270500        0.053900
      15       2       4        0.193772        0.375800        0.243100
       0       4       4       31.571406       30.987000        0.140400
       1       4       4        5.108550        5.168000        0.024300
       2       4       4       18.793718       18.802400        0.031600
       3       4       4        2.865756        2.999600        0.139600
       4       4       4       10.355916       10.264800        0.032300
       5       4       4        4.206102        4.279400        0.023100
       6       4       4       13.959825       14.099300        0.042400
       7       4       4        1.728060        1.685200        0.040700
       8       4       4        9.474651        9.458800        0.036200
       9       4       4        1.181056        1.234800        0.089400
      10       4       4        2.827780        2.847400        0.032100
      11       4       4        0.131604        0.467400        0.344100
      12       4       4        1.648171        1.644600        0.055500
      13       4       4        0.624121        0.784700        0.150400
      14       4       4        1.400661        1.381000        0.046900
       0       6       4        9.930406       10.029700        0.039100
       1       6       4        3.026453        3.067000        0.026100
       2       6       4       15.213257       15.278600        0.029900
       3       6       4        1.116583        1.356900        0.056100
       4       6       4       16.161503       16.137300        0.044800
       5       6       4        3.341009        3.269300        0.023300
       6       6       4        7.597972        7.579200        0.035700
       7       6       4        0.694354        0.953100        0.115800
       8       6       4        3.509453        3.584900        0.030800
       9       6       4        0.781680        0.893000        0.140700
      10       6       4        3.683105        3.754000        0.028400
      11       6       4        0.626926        0.629600        0.163200
      12       6       4        2.165651        2.144100        0.037300
      13       6       4        0.503132        0.506800        0.300400
      14       6       4        0.579995        0.473700        0.144700
       0       8       4        8.734080        8.465300        0.046300
       1       8       4        3.067847        3.116800        0.034200
       2       8       4        9.787826        9.697800        0.027500
       3       8       4        2.364668        2.275900        0.035100
       4       8       4        8.488291        8.305000        0.034800
       5       8       4        1.866696        1.829400        0.039500
       6       8       4        4.710718        4.701500        0.022700
       7       8       4        0.250545        0.431600        0.229300
       8       8       4        3.432818        3.454400        0.028600
       9       8       4        1.619193        1.629200        0.051400
      10       8       4        2.588764        2.565900        0.034100
      11       8       4        0.417916        0.446800        0.255600
      12       8       4        1.072448        0.996400        0.061100
       0      10       4        7.871418        7.882900        0.048300
       1      10       4        0.488237        0.365000        0.348000
       2      10       4        5.034239        5.018200        0.023500
       3      10       4        0.313635        0.380000        0.340200
       4      10       4        2.732194        2.739800        0.033300
       5      10       4        0.459190        0.630400        0.259600
       6      10       4        3.838094        3.795300        0.023100
       7      10       4        0.791850        0.782000        0.116800
       8      10       4        2.955798        2.904600        0.031500
       9      10       4        0.445838        0.402100        0.351900
      10      10       4        0.933777        0.852200        0.098300
      11      10       4        0.010287        0.198700        0.207500
       0      12       4        2.668126        2.590700        0.050000
       1      12       4        0.696943        0.434100        0.263100
       2      12       4        2.727468        2.679100        0.028400
       3      12       4        0.259878        0.517400        0.370500
       4      12       4        2.681126        2.681500        0.035500
       5      12       4        0.982637        0.936900        0.105600
       6      12       4        1.905251        1.867100        0.036700
       7      12       4        0.380291        0.429600        0.319800
       8      12       4        0.990286        1.007400        0.068000
       9      12       4        0.146232        0.264600        0.248800
       0      14       4        1.081610        1.045300        0.109200
       1      14       4        0.256000        0.320800        0.306900
       2      14       4        1.465264        1.459400        0.039100
       3      14       4        0.319276        0.588700        0.129300
       4      14       4        1.454776        1.457900        0.041800
       5      14       4        0.118373        0.358200        0.191300
       1       1       5       19.825267       19.949700        0.037600
       2       1       5       10.230861       10.249600        0.028600
       3       1       5       25.137463       24.870600        0.108700
       4       1       5        2.103583        2.105700        0.027100
       5       1       5       16.625213       16.516900        0.033000
       6       1       5        4.324563        4.410600        0.029300
       7       1       5        8.379154        8.506800        0.038000
       8       1       5        1.803063        1.846400        0.043300
       9       1       5        6.175910        6.262700        0.030400
      10       1       5        1.421974        1.394400        0.060100
      11       1       5        3.966254        3.938800        0.030000
      12       1       5        0.645644        0.573700        0.278700
      13       1       5        1.418146        1.472600        0.051700
      14       1       5        0.245275        0.423300        0.328100
       1       3       5       26.441862       26.186100        0.050600
       2       3       5        3.101974        3.061300        0.023600
       3       3       5       12.754258       12.899200        0.027400
       4       3       5        0.924266        1.023100        0.048400
       5       3       5       12.193548       12.287900        0.029100
       6       3       5        1.233747        1.293000        0.044200
       7       3       5       12.481593       12.570600        0.046900
       8       3       5        1.186716        1.257900        0.060500
       9       3       5        5.488409        5.458300        0.025800
      10       3       5        0.449445        0.470100        0.344100
      11       3       5        1.945870        1.892600        0.046300
      12       3       5        0.284638        0.325100        0.306900
      13       3       5        1.576443        1.514600        0.047700
      14       3       5        0.144597        0.391600        0.319800
       1       5       5       15.305965       15.290800        0.030600
       2       5       5        6.458764        6.550300        0.108100
       3       5       5       14.448560       14.433600        0.029800
       4       5       5        2.202553        2.319800        0.032800
       5       5       5       11.296621       11.374100        0.029100
       6       5       5        3.955382        3.924700        0.021300
       7       5       5        6.873682        6.879300        0.032100
       8       5       5        1.049947        1.108600        0.072100
       9       5       5        3.861788        3.739700        0.029500
      10       5       5        0.962568        0.790100        0.192700
      11       5       5        2.480964        2.523800        0.037700
      12       5       5        0.834739        0.916700        0.132900
      13       5       5        1.309877        1.381900        0.049600
      14       5       5        0.300531        0.271200        0.254200
       1       7       5        9.165650        9.242800        0.033800
       2       7       5        2.018291        2.090500        0.036400
       3       7       5       12.103710       12.042800        0.029400
       4       7       5        0.547138        0.754000        0.111100
       5       7       5        7.849754        7.690200        0.034200
       6       7       5        0.585079        0.598700        0.133500
       7       7       5        3.671549        3.574000        0.028800
       8       7       5        0.686935        0.618500        0.172300
       9       7       5        3.207672        3.251200        0.030400
      10       7       5        0.848079        0.620900        0.220700
      11       7       5        2.285771        2.245900        0.035600
      12       7       5        0.183924        0.364700        0.336200
      13       7       5        0.695660        0.633100        0.078200
       1       9       5        7.627975        7.616700        0.035000
       2       9       5        2.129705        2.118600        0.041300
       3       9       5        4.662491        4.691400        0.020300
       4       9       5        0.430130        0.388500        0.340200
       5       9       5        3.911707        3.787300        0.030200
       6       9       5        0.954686        0.924200        0.098800
       7       9       5        3.872515        3.824700        0.022900
       8       9       5        1.028609        0.998700        0.080000
       9       9       5        2.179079        2.247600        0.037300
      10       9       5        0.510062        0.642600        0.142200
      11       9       5        0.796993        0.602600        0.132700
       1      11       5        3.804352        3.799800        0.026000
       2      11       5        0.920761        0.844700        0.135200
       3      11       5        2.939128        2.926200        0.028600
       4      11       5        0.499745        0.416000        0.336200
       5      11       5        2.671093        2.656200        0.043000
       6      11       5        0.990033        0.877200        0.099800
       7      11       5        2.070799        2.066800        0.033200
       8      11       5        0.079767        0.310000        0.340200
       9      11       5        0.981171        0.935400        0.065100
       1      13       5        1.555141        1.524500        0.047400
       2      13       5        0.322485        0.474100        0.321100
       3      13       5        2.045997        2.052300        0.033400
       4      13       5        0.320251        0.508400        0.314500
       5      13       5        1.469180        1.464700        0.041600
       6      13       5        0.201307        0.369000        0.311300
       7      13       5        0.712277        0.737900        0.056700
       0       0       6       21.003681       20.974700        0.074600
       2       0       6       19.731711       19.560700        0.049000
       4       0       6       17.714068       17.548000        0.046400
       6       0       6       10.347226       10.131200        0.055200
       8       0       6        7.254523        7.307900        0.045800
      10       0       6        4.482404        4.544100        0.070400
      12       0       6        2.002809        2.027800        0.060100
      14       0       6        0.905839        0.705000        0.297000
       0       2       6       20.526528       20.568700        0.046100
       1       2       6        6.326696        6.407600        0.028500
       2       2       6       17.632905       17.656800        0.032600
       3       2       6        3.592433        3.521800        0.028100
       4       2       6       13.962417       13.789300        0.051900
       5       2       6        4.731594        4.751300        0.022400
       6       2       6       10.790731       10.613800        0.029400
       7       2       6        1.113783        1.056400        0.079300
       8       2       6        6.829374        6.935800        0.036200
       9       2       6        2.151249        2.286300        0.136500
      10       2       6        3.437033        3.509900        0.031400
      11       2       6        0.160256        0.471100        0.336200
      12       2       6        1.855187        1.809200        0.046300
      13       2       6        0.588889        0.695100        0.246400
      14       2       6        0.976670        1.041100        0.076800
       0       4       6       16.863974       16.887100        0.044000
       1       4       6        3.029035        3.089500        0.023400
       2       4       6       14.526483       14.495900        0.029100
       3       4       6        2.060478        2.151200        0.035400
       4       4       6       12.715575       12.741500        0.032300
       5       4       6        2.562286        2.603000        0.027800
       6       4       6        9.177117        9.363700        0.030500
       7       4       6        0.931791        0.988800        0.103900
       8       4       6        5.438057        5.406100        0.026100
       9       4       6        1.005159        1.089000        0.076900
      10       4       6        3.001319        2.983200        0.033200
      11       4       6        0.410902        0.391100        0.336200
      12       4       6        1.788466        1.806800        0.042100
      13       4       6        0.408610        0.558600        0.149900
      14       4       6        0.874383        0.792600        0.057600
       0       6       6       10.926012       10.840500        0.044900
       1       6       6        2.176571        2.076200        0.042200
       2       6       6       11.084341       10.830100        0.045300
       3       6       6        1.339115        1.832600        0.081000
       4       6       6        9.970231        9.922900        0.036100
       5       6       6        1.892147        1.863600        0.038800
       6       6       6        5.758454        5.863000        0.081200
       7       6       6        0.097014        0.370300        0.319800
       8       6       6        4.028118        3.978000        0.033500
       9       6       6        1.040343        1.279100        0.086300
      10       6       6        2.728340        2.725700        0.033500
      11       6       6        0.472003        0.363800        0.363200
      12       6       6        1.324233        1.438100        0.050300
      13       6       6        0.240313        0.351000        0.259400
       0       8       6        8.195607        8.208700        0.047800
       1       8       6        2.030850        2.120100        0.041300
       2       8       6        6.897096        6.989000        0.032100
       3       8       6        1.416784        1.415800        0.059100
       4       8       6        5.098524        5.004400        0.024300
       5       8       6        1.617450        1.654000        0.050600
       6       8       6        4.287398        4.097700        0.025100
       7       8       6        0.809485        0.733000        0.140200
       8       8       6        3.104863        3.192900        0.027400
       9       8       6        1.023983        1.046800        0.080000
      10       8       6        1.582004        1.651700        0.046100
      11       8       6        0.111354        0.494000        0.308200
      12       8       6        0.744359        0.519600        0.124500
       0      10       6        4.690504        4.691900        0.033300
       1      10       6        0.369925        0.558100        0.300100
       2      10       6        3.898138        3.912600        0.025300
       3      10       6        0.179475        0.504300        0.332100
       4      10       6        3.528848        3.530600        0.029100
       5      10       6        0.763799        0.701500        0.179000
       6      10       6        2.776762        2.793700        0.032700
       7      10       6        0.541481        0.547900        0.222300
       8      10       6        1.714130        1.695000        0.040400
       9      10       6        0.063125        0.401600        0.328100
      10      10       6        0.932455        0.887000        0.060100
       0      12       6        1.950980        2.052800        0.061200
       1      12       6        0.576276        0.792700        0.129600
       2      12       6        2.230879        2.243900        0.037300
       3      12       6        0.432306        0.633100        0.186400
       4      12       6        2.116279        2.127400        0.032200
       5      12       6        0.579614        0.648700        0.170200
       6      12       6        1.269209        1.417500        0.048300
       7      12       6        0.110880        0.303800        0.259400
       8      12       6        0.842510        0.794400        0.047900
       0      14       6        1.281146        1.227000        0.062000
       1      14       6        0.208667        0.444700        0.282400
       2      14       6        1.104496        1.033700        0.044200
       3      14       6        0.214036        0.383700        0.148800
       1       1       7       17.826559       17.657700        0.033400
       2       1       7        4.949068        4.931800        0.023900
       3       1       7       12.666672       12.657700        0.035200
       4       1       7        1.272453        1.397800        0.054500
       5       1       7        9.940886        9.845900        0.042500
       6       1       7        2.728897        2.585100        0.028000
       7       1       7        8.277456        8.268900        0.029500
       8       1       7        1.043861        1.974300        0.136900
       9       1       7        4.511501        4.546900        0.024300
      10       1       7        0.834605        0.747000        0.173200
      11       1       7        1.980961        2.038100        0.046700
      12       1       7        0.476463        0.569800        0.314000
      13       1       7        1.138432        1.084900        0.063200
      14       1       7        0.202511        0.275000        0.220100
       1       3       7       12.625283       12.738100        0.035600
       2       3       7        1.548069        1.468000        0.044100
       3       3       7       14.699832       14.763600        0.039700
       4       3       7        0.902134        0.942800        0.096900
       5       3       7       10.696922       10.541800        0.033600
       6       3       7        1.189759        1.182100        0.048300
       7       3       7        5.632309        5.639600        0.026300
       8       3       7        0.466653        0.355000        0.324000
       9       3       7        3.367701        3.458700        0.029700
      10       3       7        0.074137        0.490800        0.333500
      11       3       7        2.655221        2.675400        0.032700
      12       3       7        0.349711        0.376200        0.288900
      13       3       7        1.155188        1.082300        0.066800
       1       5       7       10.560941       10.612500        0.029800
       2       5       7        4.081705        4.055000        0.021600
       3       5       7       10.359325       10.216800        0.030500
       4       5       7        1.037685        1.190900        0.076700
       5       5       7        7.412357        7.562400        0.033700
       6       5       7        1.991268        1.972500        0.038600
       7       5       7        4.521565        4.567800        0.026700
       8       5       7        1.119714        1.112800        0.075300
       9       5       7        3.216430        3.129500        0.030400
      10       5       7        0.982504        0.913900        0.100000
      11       5       7        1.865505        1.846900        0.043300
      12       5       7        0.410419        0.403200        0.340200
      13       5       7        0.766593        0.742700        0.071800
       1       7       7        8.851061        8.781300        0.032900
       2       7       7        1.254139        1.704100        0.102700
       3       7       7        5.589383        5.641800        0.027700
       4       7       7        0.087411        0.639600        0.196400
       5       7       7        4.441835        4.436300        0.024000
       6       7       7        0.904795        0.972000        0.078300
       7       7       7        4.510092        4.603700        0.029800
       8       7       7        0.676999        0.551900        0.269000
       9       7       7        2.429016        2.442900        0.031200
      10       7       7        0.411625        0.387700        0.298000
      11       7       7        0.950311        0.975600        0.070200
      12       7       7        0.087142        0.332500        0.254200
       1       9       7        4.548258        4.560400        0.024200
       2       9       7        1.184043        1.244500        0.064200
       3       9       7        4.204864        4.307500        0.023900
       4       9       7        0.692022        0.582200        0.294200
       5       9       7        3.552064        3.490000        0.026200
       6       9       7        1.089959        1.050800        0.086900
       7       9       7        2.342614        2.305200        0.038000
       8       9       7        0.412664        0.673100        0.237500
       9       9       7        1.215760        1.273000        0.047800
      10       9       7        0.051816        0.303600        0.319800
       1      11       7        2.233061        2.264000        0.040300
       2      11       7        0.799671        0.874800        0.091400
       3      11       7        2.833053        2.835900        0.030900
       4      11       7        0.358101        0.576400        0.290500
       5      11       7        2.019755        2.096500        0.032700
       6      11       7        0.444327        0.530300        0.215400
       7      11       7        1.001932        1.022100        0.081900
       8      11       7        0.231903        0.355700        0.293500
       1      13       7        1.559363        1.581800        0.038500
       2      13       7        0.333006        0.576900        0.250700
       3      13       7        1.139009        1.147100        0.053100
       4      13       7        0.084883        0.324200        0.284200
       5      13       7        0.850033        0.774200        0.049200
       0       0       8       17.938226       17.779700        0.078400
       2       0       8       11.781168       11.632800        0.044200
       4       0       8        6.677663        6.568700        0.037100
       6       0       8        8.291093        8.452900        0.047700
       8       0       8        6.088685        6.055700        0.033300
      10       0       8        1.998754        1.921000        0.065400
      12       0       8        0.986147        0.858800        0.150700
       0       2       8       11.193566       11.162500        0.041600
       1       2       8        3.109047        3.087400        0.028400
       2       2       8       11.679133       11.729600        0.030200
       3       2       8        1.781951        1.804700        0.031600
       4       2       8       10.479858       10.505900        0.041300
       5       2       8        2.820916        2.806000        0.031200
       6       2       8        6.687378        6.612900        0.040300
       7       2       8        0.794985        0.616800        0.240700
       8       2       8        3.837266        3.865500        0.021700
       9       2       8        1.126663        1.211500        0.078500
      10       2       8        2.574842        2.615000        0.036400
      11       2       8        0.241950        0.412400        0.366800
      12       2       8        1.471589        1.443300        0.050100
      13       2       8        0.418152        0.366900        0.249000
       0       4       8        7.328419        7.399100        0.039600
       1       4       8        1.736459        1.846700        0.039200
       2       4       8       10.088305       10.122500        0.032300
       3       4       8        1.412846        1.522700        0.047500
       4       4       8       10.058395        9.963000        0.032500
       5       4       8        1.112110        1.247100        0.058000
       6       4       8        4.831134        4.808500        0.023000
       7       4       8        0.235884        0.526500        0.209600
       8       4       8        2.721973        2.788800        0.030000
       9       4       8        0.892145        0.965200        0.118300
      10       4       8        2.660836        2.648000        0.034500
      11       4       8        0.336107        0.357000        0.355700
      12       4       8        1.347194        1.290300        0.050100
      13       4       8        0.140936        0.346700        0.248800
       0       6       8        9.556781        9.626400        0.047400
       1       6       8        1.388106        1.340400        0.065300
       2       6       8        6.900753        6.960700        0.033900
       3       6       8        0.962376        1.032500        0.073700
       4       6       8        4.252329        4.257000        0.024100
       5       6       8        0.813673        0.470800        0.340200
       6       6       8        4.527360        4.602200        0.024000
       7       6       8        0.455209        0.515800        0.199200
       8       6       8        3.572751        3.645600        0.028200
       9       6       8        0.852197        0.654900        0.186000
      10       6       8        1.444515        1.430300        0.053200
      11       6       8        0.145879        0.434300        0.332200
      12       6       8        0.616881        0.557400        0.095600
       0       8       8        5.567103        5.457100        0.036300
       1       8       8        1.122708        1.297100        0.070400
       2       8       8        4.391004        4.401600        0.024200
       3       8       8        0.585175        0.714200        0.218500
       4       8       8        3.461508        3.549100        0.027900
       5       8       8        1.357357        1.327400        0.066000
       6       8       8        3.257922        3.272800        0.025600
       7       8       8        0.683077        0.527000        0.245600
       8       8       8        2.001003        1.971100        0.044400
       9       8       8        0.334455        0.561800        0.264200
      10       8       8        0.887671        0.809300        0.094100
      11       8       8        0.175357        0.262800        0.293500
       0      10       8        1.952499        1.929700        0.061100
       1      10       8        0.358636        0.556400        0.280500
       2      10       8        2.887297        2.855100        0.030700
       3      10       8        0.387792        0.583600        0.332600
       4      10       8        3.095503        3.088500        0.030800
       5      10       8        0.508284        0.487100        0.343800
       6      10       8        1.512445        1.486500        0.043500
       7      10       8        0.119638        0.364700        0.336200
       8      10       8        0.811377        0.554300        0.260900
       9      10       8        0.252408        0.405600        0.150200
       0      12       8        1.770367        1.762700        0.056100
       1      12       8        0.418829        0.336200        0.340200
       2      12       8        1.574008        1.598700        0.042900
       3      12       8        0.357612        0.633500        0.162200
       4      12       8        1.184464        1.088000        0.056000
       5      12       8        0.174715        0.479200        0.182700
       6      12       8        0.915355        0.866200        0.048300
       1       1       9       10.879334       10.940200        0.034800
       2       1       9        2.427530        2.456900        0.035600
       3       1       9        7.455123        7.399800        0.032900
       4       1       9        0.713109        0.907400        0.109100
       5       1       9        6.351683        6.419900        0.030800
       6       1       9        1.494949        1.550200        0.044200
       7       1       9        5.291551        5.315100        0.033700
       8       1       9        0.527836        0.748400        0.127100
       9       1       9        2.671353        2.629800        0.027500
      10       1       9        0.464846        0.514700        0.370500
      11       1       9        1.263046        1.220400        0.059300
      12       1       9        0.297532        0.319600        0.328100
      13       1       9        0.855021        0.856100        0.053400
       1       3       9        7.228196        7.201100        0.031700
       2       3       9        0.893713        0.938700        0.121600
       3       3       9        9.522877        9.391500        0.037300
       4       3       9        0.548687        0.561700        0.284600
       5       3       9        6.484079        6.407000        0.030300
       6       3       9        0.624507        0.856300        0.191100
       7       3       9        2.852002        2.873200        0.033100
       8       3       9        0.234194        0.543000        0.266400
       9       3       9        2.462557        2.558900        0.032700
      10       3       9        0.233793        0.413800        0.348000
      11       3       9        1.828418        1.768300        0.043100
      12       3       9        0.220530        0.442700        0.223600
       1       5       9        7.104611        7.254500        0.035200
       2       5       9        2.245465        2.276300        0.038500
       3       5       9        5.808512        5.793900        0.028900
       4       5       9        0.326361        0.544800        0.188600
       5       5       9        4.313503        4.245900        0.025100
       6       5       9        1.034813        1.206500        0.063100
       7       5       9        3.346113        3.330600        0.026300
       8       5       9        0.817406        0.950200        0.076100
       9       5       9        2.183182        2.201600        0.034600
      10       5       9        0.589319        0.592100        0.263600
      11       5       9        1.043331        0.921000        0.078500
      12       5       9        0.143695        0.404700        0.122300
       1       7       9        5.479951        5.483900        0.025700
       2       7       9        0.601420        0.822000        0.115800
       3       7       9        3.329758        3.324200        0.029800
       4       7       9        0.376309        0.492100        0.247500
       5       7       9        3.160750        3.250000        0.030500
       6       7       9        0.799831        0.759800        0.180400
       7       7       9        2.955774        3.020700        0.029000
       8       7       9        0.303442        0.458600        0.336200
       9       7       9        1.347197        1.319300        0.054800
      10       7       9        0.053136        0.371300        0.302500
       1       9       9        2.526934        2.484000        0.036800
       2       9       9        0.725515        0.965900        0.086700
       3       9       9        3.172850        3.289300        0.030100
       4       9       9        0.509155        0.532500        0.243000
       5       9       9        2.400189        2.428000        0.034500
       6       9       9        0.619409        0.704900        0.178200
       7       9       9        1.148634        1.136900        0.060300
       8       9       9        0.142039        0.435900        0.227000
       9       9       9        0.897742        1.376800        0.047000
       1      11       9        1.732955        1.785600        0.040500
       2      11       9        0.550925        0.336000        0.344100
       3      11       9        1.705614        1.689000        0.040600
       4      11       9        0.102172        0.494600        0.307800
       5      11       9        1.167808        1.143400        0.053300
       6      11       9        0.154801        0.379900        0.210400
       0       0      10        8.594670        8.682500        0.079800
       2       0      10        6.941419        6.881100        0.045900
       4       0      10        5.720728        5.653700        0.037700
       6       0      10        4.706036        4.731300        0.043400
       8       0      10        2.950128        2.931800        0.045400
      10       0      10        1.435249        1.463700        0.065000
      12       0      10        0.934424        0.849600        0.076200
       0       2      10        6.770157        6.801500        0.044200
       1       2      10        1.515715        1.594600        0.050100
       2       2      10        6.840090        6.845000        0.031700
       3       2      10        0.958180        0.838100        0.109000
       4       2      10        5.907825        5.912700        0.034100
       5       2      10        1.366617        1.348500        0.059300
       6       2      10        3.861692        3.888800        0.033300
       7       2      10        0.313544        0.488500        0.335000
       8       2      10        2.494068        2.455400        0.038800
       9       2      10        0.640793        0.531100        0.222200
      10       2      10        1.652557        1.641500        0.037100
      11       2      10        0.208323        0.381300        0.311300
      12       2      10        0.871244        0.761700        0.065000
       0       4      10        6.075564        6.116400        0.039800
       1       4      10        0.871762        0.802900        0.156400
       2       4      10        5.768990        5.850500        0.028000
       3       4      10        0.687012        0.833200        0.105100
       4       4      10        4.795519        4.842700        0.022800
       5       4      10        0.586044        0.537300        0.311700
       6       4      10        3.197155        3.152700        0.030200
       7       4      10        0.361053        0.584500        0.214900
       8       4      10        2.375437        2.378600        0.038400
       9       4      10        0.496389        0.597100        0.184900
      10       4      10        1.472365        1.452500        0.044500
      11       4      10        0.112713        0.412900        0.298000
       0       6      10        5.123883        5.177000        0.034600
       1       6      10        0.680315        0.616900        0.172700
       2       6      10        4.033902        4.055300        0.027200
       3       6      10        0.340377        0.665300        0.246000
       4       6      10        3.178852        3.139600        0.030300
       5       6      10        0.709052        0.724000        0.168200
       6       6      10        2.868896        2.864900        0.030600
       7       6      10        0.428754        0.452200        0.366800
       8       6      10        1.901399        1.915300        0.035800
       9       6      10        0.337590        0.504900        0.211100
      10       6      10        0.858795        0.850100        0.067200
       0       8      10        2.648182        2.642500        0.049000
       1       8      10        0.625231        0.487700        0.210700
       2       8      10        2.827399        2.805900        0.031200
       3       8      10        0.456046        0.573400        0.272200
       4       8      10        2.693787        2.677600        0.034100
       5       8      10        0.712120        0.768300        0.158500
       6       8      10        1.763813        1.797800        0.042300
       7       8      10        0.241177        0.349500        0.248800
       8       8      10        1.002891        0.891200        0.068300
       9       8      10        0.284276        0.455300        0.150500
       0      10      10        1.837870        1.820100        0.062700
       1      10      10        0.290048        0.583000        0.293800
       2      10      10        1.810044        1.790400        0.040400
       3      10      10        0.305705        0.491100        0.333300
       4      10      10        1.563694        1.549600        0.044200
       5      10      10        0.105306        0.546500        0.271700
       6      10      10        0.996091        1.014000        0.063800
       0      12      10        1.233860        1.129300        0.047200
       1      12      10        0.215842        0.406600        0.187200
       1       1      11        5.147008        5.202600        0.024900
       2       1      11        1.147462        1.219400        0.068700
       3       1      11        5.147109        5.156500        0.024400
       4       1      11        0.312675        0.506900        0.330400
       5       1      11        3.948949        3.938400        0.029000
       6       1      11        0.656369        0.581500        0.222600
       7       1      11        2.390751        2.374200        0.036900
       8       1      11        0.297035        0.620500        0.312900
       9       1      11        1.514758        1.455100        0.052300
      10       1      11        0.272690        0.555200        0.178300
      11       1      11        1.023969        0.943300        0.056500
       1       3      11        5.257058        5.314500        0.025800
       2       3      11        0.535613        0.492600        0.340000
       3       3      11        4.065145        4.082100        0.026100
       4       3      11        0.160971        0.367800        0.340200
       5       3      11        3.026794        3.065500        0.031000
       6       3      11        0.145232        0.490000        0.326200
       7       3      11        2.586965        2.586100        0.038300
       8       3      11        0.270640        0.506500        0.366800
       9       3      11        1.618294        1.514400        0.047800
      10       3      11        0.188683        0.327200        0.306900
      11       3      11        0.769130        0.545200        0.090800
       1       5      11        4.045788        4.109200        0.025900
       2       5      11        0.969377        0.875600        0.108700
       3       5      11        3.103817        3.137900        0.030300
       4       5      11        0.329941        0.503100        0.317700
       5       5      11        2.629599        2.631200        0.033300
       6       5      11        0.736892        0.733200        0.140200
       7       5      11        2.077543        1.999800        0.041900
       8       5      11        0.334220        0.570400        0.300300
       9       5      11        1.154631        1.169900        0.048800
      10       5      11        0.158356        0.472600        0.169100
       1       7      11        2.435402        2.411000        0.036300
       2       7      11        0.378603        0.561800        0.277800
       3       7      11        2.794904        2.749700        0.031800
       4       7      11        0.308733        0.518100        0.366800
       5       7      11        2.162904        2.066500        0.036800
       6       7      11        0.379881        0.458800        0.248900
       7       7      11        1.192736        1.225500        0.055900
       8       7      11        0.038926        0.380400        0.240100
       9       7      11        0.787156        0.786200        0.058100
       1       9      11        1.795649        1.789300        0.042500
       2       9      11        0.484391        0.344900        0.284200
       3       9      11        1.688209        1.624500        0.042200
       4       9      11        0.180443        0.372700        0.332200
       5       9      11        1.204045        1.214600        0.050100
       6       9      11        0.122880        0.306000        0.306900
       1      11      11        1.214246        1.141000        0.040000
       2      11      11        0.244234        0.454900        0.225900
       0       0      12        3.145532        3.250500        0.079600
       2       0      12        3.906195        3.976900        0.038300
       4       0      12        3.891052        3.882000        0.039200
       6       0      12        2.146580        2.143200        0.062200
       8       0      12        1.196784        1.268300        0.081000
      10       0      12        1.075174        1.072100        0.078100
       0       2      12        4.052353        4.166400        0.036500
       1       2      12        0.687560        0.684400        0.189100
       2       2      12        3.595757        3.600600        0.027500
       3       2      12        0.482668        0.549000        0.305100
       4       2      12        2.804578        2.754300        0.033200
       5       2      12        0.521043        0.608700        0.262600
       6       2      12        2.210576        2.164400        0.040400
       7       2      12        0.118493        0.425600        0.355700
       8       2      12        1.582044        1.470400        0.051800
       9       2      12        0.355780        0.657000        0.121700
      10       2      12        0.889636        0.748500        0.096600
       0       4      12        3.885943        3.923200        0.038800
       1       4      12        0.354288        0.420800        0.344100
       2       4      12        2.934677        2.940500        0.031100
       3       4      12        0.199129        0.372000        0.336200
       4       4      12        2.021283        2.018900        0.047100
       5       4      12        0.420721        0.634300        0.192000
       6       4      12        2.079356        2.055700        0.040700
       7       4      12        0.271230        0.421100        0.271200
       8       4      12        1.502078        1.467600        0.046700
       9       4      12        0.134970        0.488300        0.288400
       0       6      12        2.039724        2.052600        0.061200
       1       6      12        0.285872        0.492600        0.370500
       2       6      12        2.320324        2.315700        0.037800
       3       6      12        0.122026        0.531800        0.377700
       4       6      12        2.303025        2.284600        0.035000
       5       6      12        0.452277        0.518000        0.330700
       6       6      12        1.435532        1.405100        0.051500
       7       6      12        0.184825        0.287500        0.269600
       8       6      12        0.787180        0.824100        0.083100
       0       8      12        1.511868        1.548600        0.066400
       1       8      12        0.338764        0.487400        0.226500
       2       8      12        1.661629        1.635800        0.041900
       3       8      12        0.318476        0.381700        0.340200
       4       8      12        1.489586        1.420500        0.045600
       5       8      12        0.183623        0.339500        0.315600
       6       8      12        0.898768        0.870500        0.070000
       0      10      12        1.325472        1.240000        0.064500
       1      10      12        0.147396        0.610800        0.137100
       2      10      12        0.987547        0.921800        0.061900
       1       1      13        2.595721        2.599800        0.033700
       2       1      13        0.481340        0.433900        0.289500
       3       1      13        2.722530        2.732700        0.033400
       4       1      13        0.104453        0.548300        0.361000
       5       1      13        2.008099        1.913900        0.043800
       6       1      13        0.256919        0.352400        0.351900
       7       1      13        1.216516        1.160100        0.059100
       8       1      13        0.153674        0.421700        0.319800
       9       1      13        0.904684        0.878400        0.082300
       1       3      13        2.819137        2.798500        0.034000
       2       3      13        0.228119        0.556500        0.355700
       3       3      13        1.834298        1.830700        0.045700
       4       3      13        0.040173        0.545800        0.348700
       5       3      13        1.633176        1.604700        0.047400
       6       3      13        0.129498        0.379800        0.348000
       7       3      13        1.511384        1.491200        0.045900
       8       3      13        0.147316        0.466500        0.301900
       1       5      13        1.950179        1.869300        0.044800
       2       5      13        0.376191        0.402600        0.355700
       3       5      13        1.837375        1.847000        0.041200
       4       5      13        0.228840        0.381800        0.348000
       5       5      13        1.515489        1.410900        0.048600
       6       5      13        0.362169        0.438200        0.225800
       7       5      13        0.994717        0.930900        0.065400
       1       7      13        1.327588        1.254000        0.054600
       2       7      13        0.248917        0.337200        0.336200
       3       7      13        1.541443        1.508600        0.042900
       4       7      13        0.125797        0.344500        0.319800
       5       7      13        1.088454        1.016200        0.052400
       1       9      13        1.109396        1.024400        0.052000
       0       0      14        1.884452        2.047400        0.094800
       2       0      14        1.944532        1.921700        0.059400
       4       0      14        1.714742        1.712700        0.060000
       6       0      14        1.105025        1.082500        0.080900
       0       2      14        2.008120        1.982200        0.055700
       1       2      14        0.261661        0.427400        0.293900
       2       2      14        1.776189        1.739200        0.046000
       3       2      14        0.172424        0.450200        0.355700
       4       2      14        1.432205        1.395300        0.051800
       5       2      14        0.213591        0.410500        0.336200
       6       2      14        1.175113        1.195700        0.057300
       7       2      14        0.103615        0.304600        0.306900
       0       4      14        1.680874        1.646100        0.064700
       1       4      14        0.135610        0.610800        0.186900
       2       4      14        1.503591        1.461900        0.049500
       3       4      14        0.092003        0.393600        0.279400
       4       4      14        1.302654        1.233800        0.052400
       5       4      14        0.200118        0.326700        0.319800
       6       4      14        1.042410        0.912700        0.070900
       0       6      14        1.133874        1.159200        0.075500
       1       6      14        0.141112        0.429500        0.230400
       2       6      14        1.228562        1.215400        0.050100
       3       6      14        0.131979        0.411600        0.221900
       4       6      14        1.120963        1.047000        0.050900
       1       1      15        1.394593        1.339900        0.051100
       2       1      15        0.164562        0.445700        0.247700
       3       1      15        1.172957        1.136600        0.063600
       4       1      15        0.045612        0.322300        0.319800
       5       1      15        0.930360        0.831700        0.073200
       1       3      15        1.187560        1.123800        0.054200
       2       3      15        0.058428        0.400600        0.315600
       3       3      15        1.123257        1.164600        0.055600
       4       3      15        0.061287        0.356000        0.203100
       1       5      15        0.957359        0.939700        0.056700
       2       5      15        0.172217        0.255300        0.243300
       0       0      16        1.061771        0.968400        0.117900
